
--- Job sourceFile.gms Start 08/12/24 00:48:45 47.4.0 838fd78c WEX-WEI x86 64bit/MS Windows
--- Applying:
    C:\Program Files (x86)\GAMS\47\gmsprmNT.txt
--- GAMS Parameters defined
    Input C:\projects\itStud9Lp2024\gamsWorkSpace\sourceFile.gms
    PageSize 0
    ScrDir C:\projects\itStud9Lp2024\gamsWorkSpace\225a\
    SysDir "C:\Program Files (x86)\GAMS\47\"
    LogOption 3
    ErrMsg 1
    ErrorLog 99
    IDE 1
    LstTitleLeftAligned 1
Licensee: Course License                                 S240418|0002AO-GEN
          Stiftung Universitaet Hildesheim                          DCE3433
          C:\Program Files (x86)\GAMS\47\gamslice.txt
          License Admin: Julia Rieck, rieck@bwl.uni-hildesheim.de          
          Course license for use within the course and related course work
          The evaluation period of the license will expire on Oct 15, 2024
Processor information: 1 socket(s), 6 core(s), and 12 thread(s) available
GAMS 47.4.0   Copyright (C) 1987-2024 GAMS Development. All rights reserved
--- Starting compilation
--- sourceFile.gms(778) 3 Mb
--- Starting execution: elapsed 0:00:00.012
--- sourceFile.gms(653) 4 Mb
--- Generating MIP model optModel
--- sourceFile.gms(707) 85 Mb
---   102,473 rows  369,986 columns  668,358 non-zeroes
---   369,785 discrete-columns
--- Range statistics (absolute non-zero finite values)
--- RHS       [min, max] : [ 1.000E+00, 1.000E+00] - Zero values observed as well
--- Bound     [min, max] : [ 1.000E+00, 1.000E+00] - Zero values observed as well
--- Matrix    [min, max] : [ 1.000E+00, 1.000E+00]
--- Executing CPLEX (Solvelink=2): elapsed 0:00:02.874

IBM ILOG CPLEX   47.4.0 838fd78c Jul 30, 2024          WEI x86 64bit/MS Window

--- GAMS/CPLEX Link licensed for continuous and discrete problems.
--- GMO setup time: 0.00s
--- Space for names approximately 13.99 Mb
--- Use option 'names no' to turn use of names off
--- GMO memory 86.09 Mb (peak 88.91 Mb)
--- Dictionary memory 0.00 Mb
--- Cplex 22.1.1.0 link memory 8.23 Mb (peak 34.12 Mb)
--- Starting Cplex

Version identifier: 22.1.1.0 | 2022-11-27 | 9160aff4d
CPXPARAM_Advance                                 0
CPXPARAM_MIP_Display                             4
CPXPARAM_MIP_Pool_Capacity                       0
CPXPARAM_MIP_Tolerances_AbsMIPGap                0
Generic callback                                 0x50
Found incumbent of value 972.000000 after 0.03 sec. (12.95 ticks)
Dual infeasible due to empty column 'vBD_p(p1)'.
Presolve time = 0.01 sec. (41.52 ticks)

Root node processing (before b&c):
  Real time             =    0.06 sec. (58.41 ticks)
Parallel b&c, 12 threads:
  Real time             =    0.00 sec. (0.00 ticks)
  Sync time (average)   =    0.00 sec.
  Wait time (average)   =    0.00 sec.
                          ------------
Total (root+branch&cut) =    0.06 sec. (58.41 ticks)

--- MIP status (118): integer unbounded.
--- Cplex Time: 0.06sec (det. 59.47 ticks)

--- Returning a primal only solution to GAMS (marginals all set to NA).
--- Fixing integer variables and solving final LP...

Version identifier: 22.1.1.0 | 2022-11-27 | 9160aff4d
CPXPARAM_Advance                                 2
CPXPARAM_MIP_Display                             4
CPXPARAM_MIP_Pool_Capacity                       0
CPXPARAM_MIP_Tolerances_AbsMIPGap                0
Parallel mode: deterministic, using up to 12 threads for concurrent optimization:
 * Starting dual Simplex on 1 thread...
 * Starting Barrier on 10 threads...
 * Starting primal Simplex on 1 thread...
Dual infeasible due to empty column 'vBD_p(p1)'.
Presolve time = 0.05 sec. (36.05 ticks)

--- Fixed MIP status (4): unbounded or infeasible.
--- Cplex Time: 0.08sec (det. 140.29 ticks)

*** WARNING: Presolve found the problem infeasible or unbounded
--- Cplex diagnoses the model to be either infeasible or unbounded.
--- There is no such GAMS Model Status so returning with a status of infeasible.
*** WARNING: Final solve did not return an optimal solution. Returning MIP solution.

Problem is unbounded
MIP Solution:          972.000000    (0 iterations, 0 nodes)

Best possible:               -inf
Absolute gap:                  na
Relative gap:                  na
CPLEX Error  1217: No solution exists.
--- Could not determine which row or columns may have causedthe problem to be unbounded

--- Reading solution for model optModel
***
*** Solver did not provide marginals for model optModel
***
--- Executing after solve: elapsed 0:00:04.651
--- sourceFile.gms(778) 89 Mb
--- Putfile outputFileSimple C:\projects\itStud9Lp2024\gamsWorkSpace\output_s.txt
--- Putfile outputFileTable C:\projects\itStud9Lp2024\gamsWorkSpace\output_t.txt
*** Status: Normal completion
--- Job sourceFile.gms Stop 08/12/24 00:48:50 elapsed 0:00:04.730
